
 102   30
  10   10   10   10   10   10   10   10   10   10   10   10   10   10   10   10   10   10   10   10   10   10   10   10   10   10   10   10   10   10

   0   0   0   0   0   0   0   0   0   0   0   0   0   0   0   0   0   0   0   0   0   0   0   0   0   0   0   0   0   0   0  28 2 3 4 5 6 7 8 9 11 12 13 14 15 17 20 21 22 23 24 25 26 28 29 31 33 38 39 51 
   3   0   0   0   2   0   0   0   0   0   0   0   1   0   0   0   0   3   0   0   0   0   0   0   0   0   0   1   0   0   1  14 69 63 62 60 48 46 44 42 41 37 35 32 30 10 
   5   1   0   0   0   0   0   0   2   0   0   0   0   0   0   0   0   0   0   0   0   3   0   0   0   0   0   0   0   0   0  12 98 69 68 65 63 62 55 50 49 46 42 10 
   9   6   0   0   0   0   0   0   0   0   0   0   0   0   0   0   1   0   0   0   0   0   0   0   0   0   0   0   0   0   0  10 101 96 69 63 56 54 53 50 27 16 
   4   0   0   1   0   0   0   0   4   0   0   0   0   0   0   0   0   0   0   0   0   0   0   0   1   0   0   0   0   1   0   7 60 57 47 42 37 34 18 
   6   0   0   0   0   0   0   0   0   1   0   2   0   0   0   0   0   0   0   0   0   0   0   2   0   0   0   0   0   0   0  17 99 94 90 68 67 62 57 56 55 54 50 48 46 42 37 36 35 
   9   0   0   0   0   1   1   0   0   0   0   0   0   0   0   5   0   0   0   0   0   0   0   0   0   0   0   0   0   0   0   6 99 59 58 42 35 19 
   5   0   4   0   0   6   0   0   0   0   0   0   0   0   0   3   4   0   4   0   0   0   0   0   0   0   0   0   0   0   0  16 101 99 96 94 92 83 68 67 61 60 58 57 56 44 42 37 
   9   0   7   5   0   0   0   0   0   3   0   0   0   0   0   0   0   0   0   0   0   0   0   0   0   0   0   0   0   5   0  16 101 99 97 96 94 91 69 67 65 61 60 59 52 47 42 35 
   3   0   3   0   0   0   5   0   0   0   0   0   0   2   0   0   0   0   0   0   0   0   0   6   0   0   0   0   0   0   8  13 101 100 97 95 94 67 59 56 54 53 52 40 27 
   4   9   7   0   0   0   0   0   0   2   0   0   0   0   0   0   0   0   0   0   0   0   1   0   0   0   0   0   2   0   0  14 101 97 96 91 89 69 67 66 60 59 56 50 44 27 
   5   0   0   0   3   0   5   0   5   0   0   0   0   0   0   0   7   8   0   0   0   0   0   0   0   0   0   0   0   0   0  16 101 99 96 94 93 92 90 69 68 67 58 56 55 53 50 37 
  10   0   2   0   0  10   0   0   0   0   0   0   0   0   0   0   0   0   4   0   0   0   0   0   0   0   0   0   0   0   7  13 97 96 92 88 68 67 62 60 57 56 47 43 37 
   3   0   0   8   0   0  10   0   0   0   0   0   6   0   0   0   0   0   0   0   0   0   0   0   0   1   1   0   0   0   0  13 101 100 99 97 90 88 62 58 56 54 53 37 35 
   1   0   0   0   0   0   0   0   0   0   0   0   0   0   1   0   0   0   0   0   3   0   0   0   0   0   5   0   0   0   0  23 100 96 95 94 92 91 90 88 87 86 78 69 68 67 66 65 64 63 62 60 59 55 54 
   9   0   0   0   0   0   9   0   0   8   0   6   0   0   0   0   0   0   0   0   0   0   7   0   0   0   0   6   6   0   6  12 94 93 68 67 64 62 59 58 48 46 45 37 
  10   7   0   0   0   0   3   0   0   0   0   0   0   0   0   4   0   0   0   0   0   0   9   0   0   0   0   0   0   0   0  20 101 99 98 97 96 95 92 91 90 89 81 77 69 68 65 62 60 58 50 42 
   7   0   5   0   2   0   0   0   0   0   0   0   0   0   0   0   0   7  10   2   0   0   0   0   5   4   0   0   0   0   0  19 101 98 97 95 94 93 91 90 87 86 67 66 65 61 58 56 55 46 40 
   9   0   8   0   0   0   0   0   0   0   0   0   0   0   0   7   0   0   0   0   0   0   0   0   0   0   0   0   7   0   0  13 101 96 94 90 88 74 68 64 63 62 61 50 37 
   4   3   0   0   0   0   5   0   3   8   0   0   0   3   0   0   0   0   0   0   4   0   0   0   0   0  10   0   0   0   0  22 101 100 97 96 95 92 91 89 88 87 82 80 79 75 68 67 65 64 63 60 58 52 
   6   0   0   0   0   0   0   0   0   0   0   0   0   0   0   0   0   0   0   0   0   0   6   0   0   0   0   0   0   0   0  21 101 100 99 97 95 94 92 90 89 88 87 81 80 79 75 67 64 60 55 52 50 
   1   0   0   0   0   9   4   0   0   0   0   0   0   0   0   0   0   0   4   0   0   0   0   0   0   0   0   0   0   0   0  12 100 96 94 93 88 76 69 67 61 55 50 37 
   6   0   0   7   0   0   0   0  10   0   0   0   0   0   0   0   0   0   0   0   7   6   0   0   0   0   0   0   0   0   0  20 100 97 95 94 93 91 89 87 86 84 80 79 78 75 66 64 63 58 55 40 
   5   0   0   0   0   0   0   0   0   6   0   6   0   0   0   0   0   0   0   0   6   0   0   0   0   0   0   0   6   0   3  12 97 96 90 83 78 68 67 63 60 59 55 37 
   5   0   0   0   0   0   0   0   6   0   0   0   0   0   0   0   0   5   0   6   0   0   0   0   0   8   0   0   0   6   6  18 98 96 94 92 90 89 83 80 79 78 75 68 65 60 59 58 57 55 
   2   0   0   0   8   0   0   0   0   0   0   0   0   0   0   6   7  10   0   0   0   0   0   0   0   0   0   0   5   0   0  15 98 97 94 91 90 88 87 86 82 78 64 63 59 56 54 
   3   0   0   0   0   0   0   0   0   0   0   0   0   0   0   0   4   0   0   0   0   0   0   0   0   0   0   8   0   6   5  18 99 93 92 90 87 86 85 83 82 81 80 78 75 74 73 61 58 57 
   3   0   0   0   0   0   0   0   0   0   0   5   4   0   0   0   0   0   0   0   0   0   0   9   7   0   0   0   0   0   0  16 94 93 91 90 89 87 86 85 83 80 78 75 67 65 57 55 
  10   0   0   0   0   0   8   0   0   0   0   0   0   0   0   0   5   0   0   0   0   0   0   0   0   0   0   0   8   8   6  13 94 93 92 91 90 88 87 86 78 65 64 56 54 
   6   0   0   0   0   0   0   0   0   0   0   0   0   7   0   0   5   0   0   0   0   0   0   0   0   6   0   0   0  10  10  17 100 96 95 91 90 89 87 86 81 77 76 75 68 67 65 64 50 
   9   0   0   0   0   0   0   0   0   0   0   0   0   0   0   0   0   0  10   0   0   0   0   0   0   0   0   0   0   0   0  17 95 94 93 92 90 87 84 83 81 79 78 77 73 65 64 58 56 
   1   0   0   0   0   0   0   0   0   0   0   0   0   0   0   0   0   0   5   4   0   0   0   0   0   0   0   0   0   0   0  12 97 93 90 87 86 85 79 78 65 59 56 55 
   9   0   0   0   7   0   0   0   0   0   1   0   0   0   0   0   0   0   0   0   7   0   0   0   0   0   0   0   0   0   0  17 101 97 94 90 88 87 86 85 84 80 79 78 75 67 66 64 58 
   5   0   0   0   0   0   8   0   0   0   0   0   0   0   0   0   0   2   0   0   0   0   0   0   0   0   0   6   0   0   0  12 100 99 94 93 91 88 78 77 71 70 68 54 
   7   0   0   0   0   0   0   0   0   0   6   0   6  10   9   0   0   9   0   0   0   0   0   5   0   9   0   0   0   0   0  17 95 93 92 89 87 85 83 81 79 78 77 76 75 73 71 70 66 
   4   9   7   0   0   0   0   0   0   0  10  10   0   0   0   3   0   0   0   0   0   0   0   0   0   0   0   0   0   0   0  15 96 87 85 84 83 82 81 79 76 75 74 73 65 64 58 
   5   0   0   0   0   0   0   0   0   0   2   0   0   0   0   0   0   0   0   0   6   0   0   0   0   0   5   0   0   0   0  16 98 95 91 89 87 86 85 84 82 81 80 79 77 75 66 65 
   7   0   0   0   0   0   0   0   0   0   5   0   0   0   0   0   0   0   0   0   0   0   0   0   0   0   0   0   8   0   0  10 96 95 90 88 85 76 68 65 64 55 
   8   0   0   0   0   0   0   0   0   0   0   0   0   0   4   0   0  10   0   0   0   0   0   6  10   6   0   0   0   0   0  13 100 99 97 88 82 80 79 78 77 74 73 71 70 
   7   0   0  10   0   0   0   0   0   0   0   0   0   0   7   0   0   0   0   7   0   0   7   0   0   0   0   0   0   0   0  12 99 96 92 88 83 81 77 76 74 72 71 70 
   6   0   0   0   0   0   0   0   0   0   0   0   0   0   0   0   0   0   0   0   0   0   0   0   0   0   0   0   0   0   7  12 94 92 86 85 83 77 76 75 74 73 71 70 
   7   0   0   0   0   0   0   0   0   0   0   0   0   0   2   0   0   0   0  10   0   0   0   0   0   0   0   0   0   5   0  11 100 93 88 86 82 80 79 78 75 74 64 
   2   0   0   0   0   0   0   3   0   0   0   0   8   0   0   0   0   0   0   0   0   0   0   3   0   0   0   0   0   0   4  11 94 93 91 84 83 79 76 75 72 71 64 
   1   0   0   0   0   0   0   0   0   0   0   0   0   0   0   3   0   0   0   0   7   0   0   0   0   0   7   0   0   0   0   7 93 88 86 85 79 75 55 
   1   0   0   5   0   0   0   7   0   0   0   0   0   6   3   0   0   0   7   7   0   0   0   0   0   0   0   0   0   5   0   6 97 92 80 72 70 55 
   2   7   4   6   0   6   0   0   0   0   0   0   0   0   4   0   0   0   0   5   0   0   0   0   0   0   0   0   0   0   0   9 88 84 81 80 78 77 73 72 70 
   6   0   5   0   9   0   0   6   8   0   5   0   0   0   0   0   0   0   0   0   0   0   0   0   0   0   0   0   0   0   0   9 98 90 81 80 78 75 73 71 70 
   7   0   0   0   0   0   0   0  10   0   0   0   0   0   0   0   0   0   0   0   0   0   0   0   0   0   7   7   0   0   0   8 85 81 79 76 75 71 70 65 
   7   0   0   0   0   0   0   0   0   0   0   0   0   0   0   0   5   0   0   0   6   0   0   0   0   0   0   0   0   0   0   8 91 80 78 76 74 72 71 64 
   1   0   0   0   0   0   0   0   0   0   0   0   0   0   0   0   0   0   0   0   0   0   0   0   0   0   0   5   0   0   0   8 84 83 82 78 73 72 71 70 
   1   0   0   0  10   0   0   0   0   0   5   0   0   0   0   0   0   0   4   0   0   0   0   0   0   0   0   0   0   0   0   7 90 82 79 78 73 71 64 
   2   0   0   5   0   0   0   0   8   0   0   0   0   0   0   0   7   0   0   0   0   0   5   8   0   0   0   0   0   0   0   6 86 85 83 78 71 66 
   2   0   0   4   0   0   0   0   0   9   0   0   0   0   0   0   8   0   0   0   3   0   0   0   0   0   0   0   0   0   0   6 84 74 73 72 71 64 
   2   0   0   0   0   9   0   0   0   0   0   0   2   0   0   0   0   0   0   0   4   0   0   0   0  10   0   0   0   0   0   6 89 85 83 81 79 73 
   3   0   0   0   0   0   0   0   0   0   0   0   0   6   0   0   0   4   0   0   4   0   0   0   0   5   0   0   0   0   0   5 82 77 74 73 71 
   5   0   0   0   0   0   0   0   0   0   0   0   0   0   4   0   0   8   0   0   0   0   0   0   0   0   0   0   0   4   0   5 80 76 75 74 71 
   7   0   5   0   0   0   0   0   0   0   0   0   9   0   0   0   0   0   0   0   0   0   0   0   0   0   0   0   0   0   0   4 84 77 76 64 
   1   0   0   0   0   7   0   0   0   0   0   0   0   0   9   0   0   0   0   0   0   0   0   0   8   0   0   0   0   0   0   3 72 71 70 
   8   0   0   0   0   0   0  10   0   0   0   0   0   0   0   0   7   0   0   0   0   0   0   6   0   0   0   0   0   0   0   3 81 74 70 
   9   0   0   0   0   0   0   0   0   0   0   0   0   0   0   0   0   0   0   0   0   0   9   0   0   0   0   0   0   0   0   3 84 76 74 
   7   9   8   0   0   0   0   7   0   0   0   0   0   0   0   5   0   0   0   0   0   0   0   0   0   0   0   0   0   0   0   2 79 72 
   3   0   0   7   0   4   0   0   0   0   0   0   0   0   0   0   0   0   0   0   0   0   0   0   0   0   8   0   0   0   0   2 76 75 
   5   0   0   0   0   0   0   0   0   0   0   0   0   0   0   0   0   0   0   0   0   0   0   0   0   0   0   7   3   0   0   2 77 72 
   8   0   0   6   0   0   0   0   0   5   0   0   0   0   0   0   0   0   0   0   0   0   0   0   0   4   0   0   0   0   0   1 70 
   8   0   0   0   0   0   0   0   6   0   0   0   0   0   0   0   0   0   0   0   0   0   0   0   0   0   0   0   0   0   0   1 72 
  10   0   0   0   0   0   0   0   0   0   0   5   0   0   0   0   0   0   0   0   0   0   0   0   0   0   6   0   6   0   0   1 72 
   9   0   0   0   0   0   0   0   0   8   0   0   7   0   8   0   0   0   0   0   0   0   0   0   0   0   0   0   0   0   0   1 73 
   4   3   0   0   0   0   0   0   0   0   0   0   0   0   0  10   0   0   0   0  10   0   0   0   0   0   0   0   0  10   0   1 72 
   2   0  10   0   0   0   0   0   0   0   0   0   0   0   0   6   0   0   0   0   0   0   0   0   0   0   0   0   0   0   0   1 80 
   1   0   6   0   0   0   0   0   5   0   7   0   0   0   8   8   7   0   0   0   0   0   0   0   0   0   0   0   0   0   0   1 102
   9   0  10   7   0   0   0   0   0   0   6   0   0   0   0   0   0   0   0   0   6   0   0   0   0   7   0   0   0   0   0   1 102
   3   0   9   0   5   0   0   0   7   0   0   0   0   0   0   0  10   0   5   0   0   0   6   0   0   0   0   0   0   0   0   1 102
   5   0   7   0   6   0   0   5   0   0   0   0   0   0   0   0   0   0   0   6   0   0   0   0   0   4   0   0   0   0   0   1 102
   4   0   0   4   5   5   0   4   0   0   0   0   0   0   0   0   0   0   0   0   0   0   0   0   0   0  10   0   0   0   8   1 102
   5   0   0   0   0   7   0   5   0   0   0   0   0   0   4   0   0   0   0   0   0   0   0   0   0   5   0   0  10   0   0   1 102
   4   0   0   0   0   0   0   0   7   8   0   0   0   0   0   8   0   0   0   0   0   0   0   0   5   0   0   0   0   0   0   1 102
   5   0   0   0   0   0   0   0   0   7   0   7   0   0   0   0   0   0   0   0   9   0   0   6   0   0   5   0   6   0   0   1 102
   3   0   0   6   0   0   0   0   0   0   0   0   0   0   0   0   0   0   0   0   0   0   0   0   0   0   0   0   0   0   0   1 102
   7   6   0   0   0   0   0   0   0   0   0   0   0   0   0   7   3   1   0   8   0   0   4   0   0   0   0   0   5   0   0   1 102
   1   0   0   0   0   4   0   7   0   0   0   8   9   0   9   0   0   7   0   0   3   0   0   0   0   0   0   0   0   0   0   1 102
   2   0   0   0   0   0   0   0   0   0   0   0   0   0   0   0   0   3   9   0   5   0   0   0   6   0   0   0   0   0   0   1 102
   9   0   0   0   0   0   0   0   0   8   0   0   0   0   8   0   0   0   0   0  10   5   0   0   0   0   0   0   0   0   0   1 102
   3   4   0   5   0   0   0   0   0   0   0   0   0   0   8   0   0   0   7   6   0   0   0   0   6   0   0   0   0   0   0   1 102
   1   0   4   0   0   0   0   0   0   0   0   0   7   0   0   0   0   0   0   0   0   0   0   0   0   0   0   8   0   0   0   1 102
  10   0   0  10   0   0   8   0   0   0   0   0   0   0   0   7   9   0   0   0   0   0   0   8   0   0   0   0   0   0   0   1 102
   9   0   0   0   0   0   0   0   0   0   0   0   0   0   0   0   0   0   0   0   0   6   0   0   0   0   0   0   0   0   0   1 102
   7   0   0   0   0   5   0   0   6   0   0   0   0   0   0   0   0   0   0   7   0   0   0   0   0   0   0   0   0   0   0   1 102
   2   0   0   0   0   0   0   0   0   6   9   7   0   0   0   0   0   0   0   0   6   0   0   0   0   7   0   0   0   0   0   1 102
   4   6   5   0   0   0   0   5   0   0   0   0   0   0   8   0   8   0   0   0   0   0   0   0   0   0   0   0   0   0   0   1 102
   5   0   0   0   0   5   5   0   0   0   0   0   0   0   0   9   0   0   5   4   8   0   0   0   0   0   0   0   0   0   0   1 102
   4   0   4   0   6   0   0   0   5   0   0   0   0   0   0   0   0   0   0   0   5   0   0   0   0   0   0   8   0   0   0   1 102
   7   0   0   0   0   0   0   0   0   0   0   4   0   0   0   0   5   0   0   0   0   0   0   0   0   0   0   0   0   0   0   1 102
   2   0   0   0   0   0   0   0   7   5   0   0   0   0   0   0   0   0   0   0   0   0   0   0   0   8   0   4   0   0   0   1 102
   5   0   0   0   0   0   0   0   0   0   7   0   0   0   0   0   0   0   0   0   0   0   0   0   0   0   0   0   0   0   0   1 102
  10   8   0   0   0   0   0   0   0   0   0   0   8   0   0   0   0   0   0   0   0  10   0   0   0   0   0   0   6   0   0   1 102
   3   0   0   0   0   0   0   0   0   0   0   0   0   0   0   5   0   7   0   0   0   0   0   0   0   0   0   0   0   0   4   1 102
   9   0   0   0   0   0   0   0   0   0   0   0   0   0   0   0   0   0   0   0   0   0   0   0   0   0   6   0   0   6   0   1 102
   7   0   0   0   0   0   7   7   0   0   0   0   8   8   0   0   0   0   4   0   7   0   0  10   0   6   0   0   0   0   9   1 102
   4   0   0   0   0   0   0   0   3   0   0   0   3   0   0   0   0   0   0   0   0   0   0   0   0   0   0   0   0   0   0   1 102
   8   0   0   0   9   0   0   0   0   0   0   0   0   0   0   0   0   0   0   0   0   0   0   0   0   0   0   0   0   0   0   1 102
  10   6   0   0   0   0   0   0   0   0   9   0   0   0   0   0   0   0   0   0   0   0   0   3   0   0   2   0   0   0   0   1 102
   0   0   0   0   0   0   0   0   0   0   0   0   0   0   0   0   0   0   0   0   0   0   0   0   0   0   0   0   0   0   0   0 
